 SYSTEM=C16-NEB
#
   PREC    =         n      ! determines the energy cutoff ENCUT, |L|M|N|A|H|
   ISTART  =         0      ! job   : 0-new 1-cont 2-samecut
   ICHARG  =         2      ! charge: 0-wave 1-file 2-atom 10-const
   ISPIN   =         1      ! | 1-non spin polarized | 2-spin polarized |
   MAGMOM  =       16*0.0
   ENCUT   =         400.   ! cut-off energy for plane wave basis set in eV
   NELM    =        200     ! maximum number of electronic SC (selconsistency)
#  NELMDL  =        -6      ! number of non-selconsistency SC steps
   EDIFF   =       1E-06    ! specifies the global break condition for the electronic
   LREAL   =      .FALSE.   ! real space projection .FALSE. or Auto
   IALGO   =         38     ! select algorithm (8=CG for small, 48=RMM for big systems)
   NSW     =       500      ! maximum number of ionic steps
   IBRION  =         1      ! how to ions are updated and moved
   EDIFFG  =      -1E-03    ! break conditions for the ionic relaxation loop
   ISIF    =         3      ! controls whether the stress tensor is alculated
   ISYM    =         2      ! switch symmetry on (1,2,3) or off (-1,0)
   PSTRESS =        48      ! pressure of system in unit of Kbar
#  ADDGRID =      .TRUE.
 DOS related values:
   ISMEAR  =         0      ! for semiconductor or insulators ISMEAR=-5, SIGMA=0.05
   SIGMA   =         0.02   ! for metal ISMEAR=1 or =2 SIGMA=0.2
  EMIN   = -10
  EMAX   =  10
  NEDOS  = 20000
  LORBIT = 11
  LORBMOM = .TRUE.
 Write flags
#  LWAVE   =        .FALSE. ! These tags determine whether the orbitals (file WAVECAR),
#  LCHARG  =        .FALSE. ! the charge densities (files CHGCAR and CHG) are written
   LVTOT   =        .FALSE. !
 Non-colinear calculations and spin orbit coupling
#  LSORBIT =        .TRUE.  ! switch on SOC and automatically set LNONCOLLINEAR=.TRUE.
#  SAXIS   =         0 0 1  ! quantisation axis for spin
#  GGA_COMPAT =     .FALSE. ! apply spherical cutoff on gradient field


 SS-NEB values
#  ICHAIN      =     0         ! (int) Indicates which method to run. NEB (ICHAIN=0) is the default
   IMAGES      =     3         ! (int) Number of NEB images between the fixed endpoints
   SPRING      =    -5.0       ! The spring constant, in eV/Ang^2 between the images; negative value turns on nudging (Default=-5.0)
   LCLIMB      =   .FALSE.     ! Flag to turn on the climbing image algorithm (Default=.TRUE.)
#  LTANGENTOLD =   .FALSE.     ! Flag to turn on the old central difference tangent (Default=.FALSE.)
#  LDNEB       =   .FALSE.     ! Flag to turn on modified double nudging (Default=.FALSE.) 
   IOPT        =     3   
   LNEBCELL    =   .TRUE.      ! Flag to turn on SS-NEB. Used with ISIF=3 and IOPT=3. (Default=.FALSE.)
#  JACOBIAN    =               ! (Default=(Ω/N)^{1/3}N^{1/2}) Controls weight of lattice to atomic motion. Ω is volume and N is the number of atoms
