# Si 4nd

units			metal
atom_style		atomic
boundary		p p p

box             tilt large
read_data		structure.in

mass			1 72.64
mass			2 127.60

pair_style		deepmd frozen_model.pb
pair_coeff		

#velocity		all create 200.0 1031
compute         1 all pe/atom
compute         2 all pressure thermo_temp

read_dump       init.dump 10000 x y z vx vy vz
region          sink   block INF INF  0.      1.5    INF INF
region          source block INF INF 73.1007 74.6007 INF INF

fix				1 all nve
#fix				1 all nvt temp 600 600 1.00
#fix				1 all npt temp 200 200 1. iso 0 0 1.
#fix             1 all box/relax iso 0.0 vmax 1e-4
fix             2 all heat 1 -1.1 region sink
fix             3 all heat 1 1.1 region source

thermo_style    custom step etotal ke temp pe ebond eangle edihed eimp evdwl ecoul elong press pxx pyy pzz pyz pxz pxy vol
thermo_modify   format float %.15g
thermo			1

#dump			myDump all atom 100 atom.dump
dump			1 all custom 1 out.dump id element mass type x y z fx fy fz vx vy vz c_1
dump_modify		1 element Ge Te

#minimize        1e-7 1e-3 1000 10000
timestep		0.01
run				10000

