k-points along high symmetry lines
100  
Line-mode
rec
0.500 0.500 0.500 !L
0.000 0.000 0.000 !GM

0.000 0.000 0.000 !GM
0.000 0.500 0.500 !F

0.000 0.500 0.500 !F
0.242 0.629 0.629 !Q

0.371 0.758 0.371 !P
0.000 0.000 0.000 !GM
