k-points along high symmetry lines
100 ! 100 grids
Line-mode
rec
0.500 0.500 0.500 ! L
0.000 0.000 0.000 ! \Gamma

0.000 0.000 0.000 ! \Gamma
0.000 0.500 0.500 ! X
 
0.000 0.500 0.500 ! X
0.250 0.625 0.625 ! U

0.750 0.375 0.375 ! K
0.000 0.000 0.000 ! \Gamma
